c numero: 34
c nombre: n-40-d-0.3
c densidad: 0.3
p edges 40 251
e 1 3
e 1 5
e 1 9
e 1 12
e 1 13
e 1 15
e 1 16
e 1 17
e 1 20
e 1 22
e 1 27
e 1 28
e 1 34
e 1 37
e 1 40
e 2 3
e 2 4
e 2 6
e 2 11
e 2 13
e 2 16
e 2 17
e 2 23
e 2 28
e 2 29
e 2 30
e 2 33
e 2 35
e 2 37
e 2 38
e 3 6
e 3 7
e 3 8
e 3 10
e 3 11
e 3 15
e 3 18
e 3 19
e 3 20
e 3 22
e 3 23
e 3 26
e 3 27
e 3 33
e 3 35
e 3 40
e 4 8
e 4 9
e 4 22
e 4 24
e 4 26
e 4 28
e 4 33
e 4 34
e 4 35
e 5 10
e 5 13
e 5 15
e 5 18
e 5 19
e 5 22
e 5 32
e 5 36
e 5 37
e 6 9
e 6 12
e 6 22
e 6 23
e 6 29
e 6 32
e 6 33
e 6 34
e 6 37
e 6 39
e 6 40
e 7 9
e 7 11
e 7 16
e 7 17
e 7 21
e 7 22
e 7 24
e 7 27
e 7 30
e 7 37
e 8 9
e 8 12
e 8 14
e 8 15
e 8 16
e 8 17
e 8 28
e 8 29
e 8 30
e 8 36
e 9 10
e 9 11
e 9 13
e 9 20
e 9 26
e 9 27
e 9 29
e 9 32
e 9 37
e 9 38
e 10 11
e 10 12
e 10 22
e 10 23
e 10 25
e 10 27
e 10 29
e 10 34
e 10 39
e 11 18
e 11 21
e 11 22
e 11 24
e 11 25
e 11 27
e 11 32
e 12 14
e 12 15
e 12 21
e 12 22
e 12 25
e 12 28
e 12 29
e 12 37
e 13 23
e 13 26
e 13 28
e 13 29
e 13 35
e 13 37
e 13 39
e 14 17
e 14 20
e 14 22
e 14 27
e 14 29
e 14 30
e 14 33
e 14 37
e 15 18
e 15 19
e 15 21
e 15 24
e 15 30
e 15 31
e 15 32
e 15 40
e 16 17
e 16 19
e 16 21
e 16 27
e 16 28
e 16 32
e 16 33
e 16 37
e 16 38
e 17 19
e 17 20
e 17 21
e 17 28
e 17 30
e 17 33
e 17 37
e 17 38
e 18 19
e 18 26
e 18 29
e 18 32
e 18 33
e 18 37
e 19 21
e 19 25
e 19 32
e 19 34
e 19 40
e 20 21
e 20 23
e 20 24
e 20 27
e 20 28
e 20 32
e 20 34
e 20 39
e 20 40
e 21 23
e 21 25
e 21 26
e 21 27
e 21 32
e 21 34
e 21 35
e 21 38
e 21 39
e 22 26
e 22 28
e 22 37
e 22 39
e 23 24
e 23 26
e 23 29
e 23 31
e 23 32
e 23 35
e 23 37
e 23 39
e 24 26
e 24 27
e 24 33
e 24 38
e 25 26
e 25 27
e 25 29
e 25 32
e 25 37
e 26 28
e 26 32
e 26 35
e 26 37
e 26 40
e 27 32
e 27 37
e 27 39
e 28 32
e 28 36
e 28 40
e 29 30
e 29 32
e 29 33
e 30 32
e 30 34
e 30 35
e 30 38
e 31 38
e 31 39
e 31 40
e 32 33
e 32 40
e 33 34
e 34 38
e 35 36
e 35 40
e 36 37
e 36 39
e 37 38
e 37 39
e 39 40
